40
    52    75    35    70    47    97    50    18    34     9     4    78    23    30     5    84    52    34    45    71    86    45    88    80    17    42    81    53    69    57    45    36    89    75    84    77    57    33    75    30
     4     1     8     4     4     2     2     6    10     8     2     7     1     7     7    10     4     9     8     4     5     5     2     3     6     7     7    10     1     7     6    10     9     9     6     7    10     6     5     8
  1213   263   497  1051  1192   956   820  1466  1323  1104  1339   737   529   998  1364   392   789   680   564  1290   631   854   449   381   763   619  1372   893  1394   932  1453  1431  1481  1067  1252  1044  1159   802  1409  1105
